// Strimko Weekly Set 067
n = 5;
streams = 
  [
    [1,1,1,2,3],
    [1,2,2,2,3],
    [1,2,4,5,3],
    [5,4,5,4,3],
    [4,5,5,4,3]
  ];

num_placed = 5;
placed = 
   [
     [1,3,4],
     [1,4,1],
     [3,3,2],
     [3,5,3],
     [5,4,5]
   ];
